Set parameter TokenServer to value "hpc-licenses.hpcc.usc.edu"
Set parameter TimeLimit to value 3600
Gurobi Optimizer version 9.5.1 build v9.5.1rc2 (linux64)
Thread count: 20 physical cores, 20 logical processors, using up to 20 threads
Optimize a model with 6007 rows, 4529 columns and 24534 nonzeros
Model fingerprint: 0x7ad105ea
Variable types: 4506 continuous, 23 integer (23 binary)
Coefficient statistics:
  Matrix range     [1e+00, 1e+00]
  Objective range  [2e-03, 1e+00]
  Bounds range     [1e+00, 1e+00]
  RHS range        [1e+00, 1e+02]
Presolve removed 1520 rows and 1515 columns
Presolve time: 0.05s
Presolved: 4487 rows, 3014 columns, 21975 nonzeros
Variable types: 2994 continuous, 20 integer (20 binary)
Found heuristic solution: objective 278.8172003

Root relaxation: objective 2.878619e+02, 2981 iterations, 0.11 seconds (0.18 work units)

    Nodes    |    Current Node    |     Objective Bounds      |     Work
 Expl Unexpl |  Obj  Depth IntInf | Incumbent    BestBd   Gap | It/Node Time

     0     0  287.86187    0    3  278.81720  287.86187  3.24%     -    0s
     0     0  287.73563    0    3  278.81720  287.73563  3.20%     -    0s
     0     0  287.66462    0    3  278.81720  287.66462  3.17%     -    0s
H    0     0                     279.3765515  287.66462  2.97%     -    0s
     0     0  287.57923    0    4  279.37655  287.57923  2.94%     -    0s
H    0     0                     286.7243190  287.57923  0.30%     -    0s
     0     0  287.55375    0    4  286.72432  287.55375  0.29%     -    0s
     0     0  287.55375    0    3  286.72432  287.55375  0.29%     -    1s
H    0     0                     286.8622366  287.55375  0.24%     -    1s
     0     0  287.55374    0    4  286.86224  287.55374  0.24%     -    1s
     0     0  287.54788    0    4  286.86224  287.54788  0.24%     -    2s
     0     0  287.54788    0    4  286.86224  287.54788  0.24%     -    2s
     0     0  287.03657    0    4  286.86224  287.03657  0.06%     -    2s
     0     0  287.03657    0    4  286.86224  287.03657  0.06%     -    2s
     0     2  287.03657    0    4  286.86224  287.03657  0.06%     -    2s

Cutting planes:
  Gomory: 5
  MIR: 600
  RLT: 11
  Relax-and-lift: 19

Explored 11 nodes (6692 simplex iterations) in 2.69 seconds (1.55 work units)
Thread count was 20 (of 20 available processors)

Solution count 4: 286.862 286.724 279.377 278.817 

Optimal solution found (tolerance 1.00e-04)
Best objective 2.868622365754e+02, best bound 2.868622365754e+02, gap 0.0000%



#########node  1
V1.8
#########node  2
0.0,1.0
#########node  3
1.0,0.0


Total Solving Time 3.035273313522339
obj value 286.86223657541433
Policy Regret train (Sum) 3.4466623243982886
Best Treatment Found train (%) 75.4
treatment classification acc train (%) 37.8
Policy Regret test (Sum) 33.68478658989411
Best Treatment Found test (%) 82.75
treatment classification acc test (%) 40.58
